8341
11, 52, 14, 13, 47, 26, 28, 27, 12, 25, 4, 6, 24, 48, 46, 44, 16, 29, 30, 50, 20, 23, 1, 32, 45, 19, 10, 9, 8, 41, 3, 17, 7, 2, 42, 21, 31, 18, 22, 49, 35, 34, 36, 39, 40, 37, 38, 5, 15, 43, 33, 51
